WARNING: for repeatability, setting FPU to use double precision
============================[ Problem Statistics ]=============================
|                                                                             |
|  Number of variables:            50                                         |
|  Number of clauses:             218                                         |
|  Parse time:                   0.00 s                                       |
|                                                                             |
============================[ Search Statistics ]==============================
| Conflicts |          ORIGINAL         |          LEARNT          | Progress |
|           |    Vars  Clauses Literals |    Limit  Clauses Lit/Cl |          |
===============================================================================
===============================================================================
restarts              : 1
conflicts             : 49             (33585 /sec)
decisions             : 63             (0.00 % random) (43180 /sec)
propagations          : 707            (484578 /sec)
conflict literals     : 195            (18.41 % deleted)
Memory used           : 20.00 MB
CPU time              : 0.001459 s

SATISFIABLE
